NAME : amtsp.181828.tour
COMMENT : Length = 181828
COMMENT : Found by LKH [Keld Helsgaun] Sat Dec 23 15:48:31 2023
TYPE : TOUR
DIMENSION : 92
TOUR_SECTION
1
17
16
18
19
24
67
66
68
75
39
37
40
36
38
52
54
51
55
53
60
57
56
58
59
92
5
83
81
82
85
7
10
6
9
8
20
25
22
21
23
70
34
32
31
33
35
47
49
46
50
48
90
15
3
91
88
86
87
80
65
62
61
63
64
77
76
78
89
79
43
44
41
45
42
74
73
71
72
69
28
26
30
27
29
14
13
11
12
4
84
2
-1
EOF
